k-points for fermi-surface. RP-phase 9x9x9
729
Reciprocal
0.0000 0.0000 0.0000 1
0.0000 0.0000 0.1111 1
0.0000 0.0000 0.2222 1
0.0000 0.0000 0.3333 1
0.0000 0.0000 0.4444 1
0.0000 0.0000 0.5556 1
0.0000 0.0000 0.6667 1
0.0000 0.0000 0.7778 1
0.0000 0.0000 0.8889 1
0.0000 0.1111 0.0000 1
0.0000 0.1111 0.1111 1
0.0000 0.1111 0.2222 1
0.0000 0.1111 0.3333 1
0.0000 0.1111 0.4444 1
0.0000 0.1111 0.5556 1
0.0000 0.1111 0.6667 1
0.0000 0.1111 0.7778 1
0.0000 0.1111 0.8889 1
0.0000 0.2222 0.0000 1
0.0000 0.2222 0.1111 1
0.0000 0.2222 0.2222 1
0.0000 0.2222 0.3333 1
0.0000 0.2222 0.4444 1
0.0000 0.2222 0.5556 1
0.0000 0.2222 0.6667 1
0.0000 0.2222 0.7778 1
0.0000 0.2222 0.8889 1
0.0000 0.3333 0.0000 1
0.0000 0.3333 0.1111 1
0.0000 0.3333 0.2222 1
0.0000 0.3333 0.3333 1
0.0000 0.3333 0.4444 1
0.0000 0.3333 0.5556 1
0.0000 0.3333 0.6667 1
0.0000 0.3333 0.7778 1
0.0000 0.3333 0.8889 1
0.0000 0.4444 0.0000 1
0.0000 0.4444 0.1111 1
0.0000 0.4444 0.2222 1
0.0000 0.4444 0.3333 1
0.0000 0.4444 0.4444 1
0.0000 0.4444 0.5556 1
0.0000 0.4444 0.6667 1
0.0000 0.4444 0.7778 1
0.0000 0.4444 0.8889 1
0.0000 0.5556 0.0000 1
0.0000 0.5556 0.1111 1
0.0000 0.5556 0.2222 1
0.0000 0.5556 0.3333 1
0.0000 0.5556 0.4444 1
0.0000 0.5556 0.5556 1
0.0000 0.5556 0.6667 1
0.0000 0.5556 0.7778 1
0.0000 0.5556 0.8889 1
0.0000 0.6667 0.0000 1
0.0000 0.6667 0.1111 1
0.0000 0.6667 0.2222 1
0.0000 0.6667 0.3333 1
0.0000 0.6667 0.4444 1
0.0000 0.6667 0.5556 1
0.0000 0.6667 0.6667 1
0.0000 0.6667 0.7778 1
0.0000 0.6667 0.8889 1
0.0000 0.7778 0.0000 1
0.0000 0.7778 0.1111 1
0.0000 0.7778 0.2222 1
0.0000 0.7778 0.3333 1
0.0000 0.7778 0.4444 1
0.0000 0.7778 0.5556 1
0.0000 0.7778 0.6667 1
0.0000 0.7778 0.7778 1
0.0000 0.7778 0.8889 1
0.0000 0.8889 0.0000 1
0.0000 0.8889 0.1111 1
0.0000 0.8889 0.2222 1
0.0000 0.8889 0.3333 1
0.0000 0.8889 0.4444 1
0.0000 0.8889 0.5556 1
0.0000 0.8889 0.6667 1
0.0000 0.8889 0.7778 1
0.0000 0.8889 0.8889 1
0.1111 0.0000 0.0000 1
0.1111 0.0000 0.1111 1
0.1111 0.0000 0.2222 1
0.1111 0.0000 0.3333 1
0.1111 0.0000 0.4444 1
0.1111 0.0000 0.5556 1
0.1111 0.0000 0.6667 1
0.1111 0.0000 0.7778 1
0.1111 0.0000 0.8889 1
0.1111 0.1111 0.0000 1
0.1111 0.1111 0.1111 1
0.1111 0.1111 0.2222 1
0.1111 0.1111 0.3333 1
0.1111 0.1111 0.4444 1
0.1111 0.1111 0.5556 1
0.1111 0.1111 0.6667 1
0.1111 0.1111 0.7778 1
0.1111 0.1111 0.8889 1
0.1111 0.2222 0.0000 1
0.1111 0.2222 0.1111 1
0.1111 0.2222 0.2222 1
0.1111 0.2222 0.3333 1
0.1111 0.2222 0.4444 1
0.1111 0.2222 0.5556 1
0.1111 0.2222 0.6667 1
0.1111 0.2222 0.7778 1
0.1111 0.2222 0.8889 1
0.1111 0.3333 0.0000 1
0.1111 0.3333 0.1111 1
0.1111 0.3333 0.2222 1
0.1111 0.3333 0.3333 1
0.1111 0.3333 0.4444 1
0.1111 0.3333 0.5556 1
0.1111 0.3333 0.6667 1
0.1111 0.3333 0.7778 1
0.1111 0.3333 0.8889 1
0.1111 0.4444 0.0000 1
0.1111 0.4444 0.1111 1
0.1111 0.4444 0.2222 1
0.1111 0.4444 0.3333 1
0.1111 0.4444 0.4444 1
0.1111 0.4444 0.5556 1
0.1111 0.4444 0.6667 1
0.1111 0.4444 0.7778 1
0.1111 0.4444 0.8889 1
0.1111 0.5556 0.0000 1
0.1111 0.5556 0.1111 1
0.1111 0.5556 0.2222 1
0.1111 0.5556 0.3333 1
0.1111 0.5556 0.4444 1
0.1111 0.5556 0.5556 1
0.1111 0.5556 0.6667 1
0.1111 0.5556 0.7778 1
0.1111 0.5556 0.8889 1
0.1111 0.6667 0.0000 1
0.1111 0.6667 0.1111 1
0.1111 0.6667 0.2222 1
0.1111 0.6667 0.3333 1
0.1111 0.6667 0.4444 1
0.1111 0.6667 0.5556 1
0.1111 0.6667 0.6667 1
0.1111 0.6667 0.7778 1
0.1111 0.6667 0.8889 1
0.1111 0.7778 0.0000 1
0.1111 0.7778 0.1111 1
0.1111 0.7778 0.2222 1
0.1111 0.7778 0.3333 1
0.1111 0.7778 0.4444 1
0.1111 0.7778 0.5556 1
0.1111 0.7778 0.6667 1
0.1111 0.7778 0.7778 1
0.1111 0.7778 0.8889 1
0.1111 0.8889 0.0000 1
0.1111 0.8889 0.1111 1
0.1111 0.8889 0.2222 1
0.1111 0.8889 0.3333 1
0.1111 0.8889 0.4444 1
0.1111 0.8889 0.5556 1
0.1111 0.8889 0.6667 1
0.1111 0.8889 0.7778 1
0.1111 0.8889 0.8889 1
0.2222 0.0000 0.0000 1
0.2222 0.0000 0.1111 1
0.2222 0.0000 0.2222 1
0.2222 0.0000 0.3333 1
0.2222 0.0000 0.4444 1
0.2222 0.0000 0.5556 1
0.2222 0.0000 0.6667 1
0.2222 0.0000 0.7778 1
0.2222 0.0000 0.8889 1
0.2222 0.1111 0.0000 1
0.2222 0.1111 0.1111 1
0.2222 0.1111 0.2222 1
0.2222 0.1111 0.3333 1
0.2222 0.1111 0.4444 1
0.2222 0.1111 0.5556 1
0.2222 0.1111 0.6667 1
0.2222 0.1111 0.7778 1
0.2222 0.1111 0.8889 1
0.2222 0.2222 0.0000 1
0.2222 0.2222 0.1111 1
0.2222 0.2222 0.2222 1
0.2222 0.2222 0.3333 1
0.2222 0.2222 0.4444 1
0.2222 0.2222 0.5556 1
0.2222 0.2222 0.6667 1
0.2222 0.2222 0.7778 1
0.2222 0.2222 0.8889 1
0.2222 0.3333 0.0000 1
0.2222 0.3333 0.1111 1
0.2222 0.3333 0.2222 1
0.2222 0.3333 0.3333 1
0.2222 0.3333 0.4444 1
0.2222 0.3333 0.5556 1
0.2222 0.3333 0.6667 1
0.2222 0.3333 0.7778 1
0.2222 0.3333 0.8889 1
0.2222 0.4444 0.0000 1
0.2222 0.4444 0.1111 1
0.2222 0.4444 0.2222 1
0.2222 0.4444 0.3333 1
0.2222 0.4444 0.4444 1
0.2222 0.4444 0.5556 1
0.2222 0.4444 0.6667 1
0.2222 0.4444 0.7778 1
0.2222 0.4444 0.8889 1
0.2222 0.5556 0.0000 1
0.2222 0.5556 0.1111 1
0.2222 0.5556 0.2222 1
0.2222 0.5556 0.3333 1
0.2222 0.5556 0.4444 1
0.2222 0.5556 0.5556 1
0.2222 0.5556 0.6667 1
0.2222 0.5556 0.7778 1
0.2222 0.5556 0.8889 1
0.2222 0.6667 0.0000 1
0.2222 0.6667 0.1111 1
0.2222 0.6667 0.2222 1
0.2222 0.6667 0.3333 1
0.2222 0.6667 0.4444 1
0.2222 0.6667 0.5556 1
0.2222 0.6667 0.6667 1
0.2222 0.6667 0.7778 1
0.2222 0.6667 0.8889 1
0.2222 0.7778 0.0000 1
0.2222 0.7778 0.1111 1
0.2222 0.7778 0.2222 1
0.2222 0.7778 0.3333 1
0.2222 0.7778 0.4444 1
0.2222 0.7778 0.5556 1
0.2222 0.7778 0.6667 1
0.2222 0.7778 0.7778 1
0.2222 0.7778 0.8889 1
0.2222 0.8889 0.0000 1
0.2222 0.8889 0.1111 1
0.2222 0.8889 0.2222 1
0.2222 0.8889 0.3333 1
0.2222 0.8889 0.4444 1
0.2222 0.8889 0.5556 1
0.2222 0.8889 0.6667 1
0.2222 0.8889 0.7778 1
0.2222 0.8889 0.8889 1
0.3333 0.0000 0.0000 1
0.3333 0.0000 0.1111 1
0.3333 0.0000 0.2222 1
0.3333 0.0000 0.3333 1
0.3333 0.0000 0.4444 1
0.3333 0.0000 0.5556 1
0.3333 0.0000 0.6667 1
0.3333 0.0000 0.7778 1
0.3333 0.0000 0.8889 1
0.3333 0.1111 0.0000 1
0.3333 0.1111 0.1111 1
0.3333 0.1111 0.2222 1
0.3333 0.1111 0.3333 1
0.3333 0.1111 0.4444 1
0.3333 0.1111 0.5556 1
0.3333 0.1111 0.6667 1
0.3333 0.1111 0.7778 1
0.3333 0.1111 0.8889 1
0.3333 0.2222 0.0000 1
0.3333 0.2222 0.1111 1
0.3333 0.2222 0.2222 1
0.3333 0.2222 0.3333 1
0.3333 0.2222 0.4444 1
0.3333 0.2222 0.5556 1
0.3333 0.2222 0.6667 1
0.3333 0.2222 0.7778 1
0.3333 0.2222 0.8889 1
0.3333 0.3333 0.0000 1
0.3333 0.3333 0.1111 1
0.3333 0.3333 0.2222 1
0.3333 0.3333 0.3333 1
0.3333 0.3333 0.4444 1
0.3333 0.3333 0.5556 1
0.3333 0.3333 0.6667 1
0.3333 0.3333 0.7778 1
0.3333 0.3333 0.8889 1
0.3333 0.4444 0.0000 1
0.3333 0.4444 0.1111 1
0.3333 0.4444 0.2222 1
0.3333 0.4444 0.3333 1
0.3333 0.4444 0.4444 1
0.3333 0.4444 0.5556 1
0.3333 0.4444 0.6667 1
0.3333 0.4444 0.7778 1
0.3333 0.4444 0.8889 1
0.3333 0.5556 0.0000 1
0.3333 0.5556 0.1111 1
0.3333 0.5556 0.2222 1
0.3333 0.5556 0.3333 1
0.3333 0.5556 0.4444 1
0.3333 0.5556 0.5556 1
0.3333 0.5556 0.6667 1
0.3333 0.5556 0.7778 1
0.3333 0.5556 0.8889 1
0.3333 0.6667 0.0000 1
0.3333 0.6667 0.1111 1
0.3333 0.6667 0.2222 1
0.3333 0.6667 0.3333 1
0.3333 0.6667 0.4444 1
0.3333 0.6667 0.5556 1
0.3333 0.6667 0.6667 1
0.3333 0.6667 0.7778 1
0.3333 0.6667 0.8889 1
0.3333 0.7778 0.0000 1
0.3333 0.7778 0.1111 1
0.3333 0.7778 0.2222 1
0.3333 0.7778 0.3333 1
0.3333 0.7778 0.4444 1
0.3333 0.7778 0.5556 1
0.3333 0.7778 0.6667 1
0.3333 0.7778 0.7778 1
0.3333 0.7778 0.8889 1
0.3333 0.8889 0.0000 1
0.3333 0.8889 0.1111 1
0.3333 0.8889 0.2222 1
0.3333 0.8889 0.3333 1
0.3333 0.8889 0.4444 1
0.3333 0.8889 0.5556 1
0.3333 0.8889 0.6667 1
0.3333 0.8889 0.7778 1
0.3333 0.8889 0.8889 1
0.4444 0.0000 0.0000 1
0.4444 0.0000 0.1111 1
0.4444 0.0000 0.2222 1
0.4444 0.0000 0.3333 1
0.4444 0.0000 0.4444 1
0.4444 0.0000 0.5556 1
0.4444 0.0000 0.6667 1
0.4444 0.0000 0.7778 1
0.4444 0.0000 0.8889 1
0.4444 0.1111 0.0000 1
0.4444 0.1111 0.1111 1
0.4444 0.1111 0.2222 1
0.4444 0.1111 0.3333 1
0.4444 0.1111 0.4444 1
0.4444 0.1111 0.5556 1
0.4444 0.1111 0.6667 1
0.4444 0.1111 0.7778 1
0.4444 0.1111 0.8889 1
0.4444 0.2222 0.0000 1
0.4444 0.2222 0.1111 1
0.4444 0.2222 0.2222 1
0.4444 0.2222 0.3333 1
0.4444 0.2222 0.4444 1
0.4444 0.2222 0.5556 1
0.4444 0.2222 0.6667 1
0.4444 0.2222 0.7778 1
0.4444 0.2222 0.8889 1
0.4444 0.3333 0.0000 1
0.4444 0.3333 0.1111 1
0.4444 0.3333 0.2222 1
0.4444 0.3333 0.3333 1
0.4444 0.3333 0.4444 1
0.4444 0.3333 0.5556 1
0.4444 0.3333 0.6667 1
0.4444 0.3333 0.7778 1
0.4444 0.3333 0.8889 1
0.4444 0.4444 0.0000 1
0.4444 0.4444 0.1111 1
0.4444 0.4444 0.2222 1
0.4444 0.4444 0.3333 1
0.4444 0.4444 0.4444 1
0.4444 0.4444 0.5556 1
0.4444 0.4444 0.6667 1
0.4444 0.4444 0.7778 1
0.4444 0.4444 0.8889 1
0.4444 0.5556 0.0000 1
0.4444 0.5556 0.1111 1
0.4444 0.5556 0.2222 1
0.4444 0.5556 0.3333 1
0.4444 0.5556 0.4444 1
0.4444 0.5556 0.5556 1
0.4444 0.5556 0.6667 1
0.4444 0.5556 0.7778 1
0.4444 0.5556 0.8889 1
0.4444 0.6667 0.0000 1
0.4444 0.6667 0.1111 1
0.4444 0.6667 0.2222 1
0.4444 0.6667 0.3333 1
0.4444 0.6667 0.4444 1
0.4444 0.6667 0.5556 1
0.4444 0.6667 0.6667 1
0.4444 0.6667 0.7778 1
0.4444 0.6667 0.8889 1
0.4444 0.7778 0.0000 1
0.4444 0.7778 0.1111 1
0.4444 0.7778 0.2222 1
0.4444 0.7778 0.3333 1
0.4444 0.7778 0.4444 1
0.4444 0.7778 0.5556 1
0.4444 0.7778 0.6667 1
0.4444 0.7778 0.7778 1
0.4444 0.7778 0.8889 1
0.4444 0.8889 0.0000 1
0.4444 0.8889 0.1111 1
0.4444 0.8889 0.2222 1
0.4444 0.8889 0.3333 1
0.4444 0.8889 0.4444 1
0.4444 0.8889 0.5556 1
0.4444 0.8889 0.6667 1
0.4444 0.8889 0.7778 1
0.4444 0.8889 0.8889 1
0.5556 0.0000 0.0000 1
0.5556 0.0000 0.1111 1
0.5556 0.0000 0.2222 1
0.5556 0.0000 0.3333 1
0.5556 0.0000 0.4444 1
0.5556 0.0000 0.5556 1
0.5556 0.0000 0.6667 1
0.5556 0.0000 0.7778 1
0.5556 0.0000 0.8889 1
0.5556 0.1111 0.0000 1
0.5556 0.1111 0.1111 1
0.5556 0.1111 0.2222 1
0.5556 0.1111 0.3333 1
0.5556 0.1111 0.4444 1
0.5556 0.1111 0.5556 1
0.5556 0.1111 0.6667 1
0.5556 0.1111 0.7778 1
0.5556 0.1111 0.8889 1
0.5556 0.2222 0.0000 1
0.5556 0.2222 0.1111 1
0.5556 0.2222 0.2222 1
0.5556 0.2222 0.3333 1
0.5556 0.2222 0.4444 1
0.5556 0.2222 0.5556 1
0.5556 0.2222 0.6667 1
0.5556 0.2222 0.7778 1
0.5556 0.2222 0.8889 1
0.5556 0.3333 0.0000 1
0.5556 0.3333 0.1111 1
0.5556 0.3333 0.2222 1
0.5556 0.3333 0.3333 1
0.5556 0.3333 0.4444 1
0.5556 0.3333 0.5556 1
0.5556 0.3333 0.6667 1
0.5556 0.3333 0.7778 1
0.5556 0.3333 0.8889 1
0.5556 0.4444 0.0000 1
0.5556 0.4444 0.1111 1
0.5556 0.4444 0.2222 1
0.5556 0.4444 0.3333 1
0.5556 0.4444 0.4444 1
0.5556 0.4444 0.5556 1
0.5556 0.4444 0.6667 1
0.5556 0.4444 0.7778 1
0.5556 0.4444 0.8889 1
0.5556 0.5556 0.0000 1
0.5556 0.5556 0.1111 1
0.5556 0.5556 0.2222 1
0.5556 0.5556 0.3333 1
0.5556 0.5556 0.4444 1
0.5556 0.5556 0.5556 1
0.5556 0.5556 0.6667 1
0.5556 0.5556 0.7778 1
0.5556 0.5556 0.8889 1
0.5556 0.6667 0.0000 1
0.5556 0.6667 0.1111 1
0.5556 0.6667 0.2222 1
0.5556 0.6667 0.3333 1
0.5556 0.6667 0.4444 1
0.5556 0.6667 0.5556 1
0.5556 0.6667 0.6667 1
0.5556 0.6667 0.7778 1
0.5556 0.6667 0.8889 1
0.5556 0.7778 0.0000 1
0.5556 0.7778 0.1111 1
0.5556 0.7778 0.2222 1
0.5556 0.7778 0.3333 1
0.5556 0.7778 0.4444 1
0.5556 0.7778 0.5556 1
0.5556 0.7778 0.6667 1
0.5556 0.7778 0.7778 1
0.5556 0.7778 0.8889 1
0.5556 0.8889 0.0000 1
0.5556 0.8889 0.1111 1
0.5556 0.8889 0.2222 1
0.5556 0.8889 0.3333 1
0.5556 0.8889 0.4444 1
0.5556 0.8889 0.5556 1
0.5556 0.8889 0.6667 1
0.5556 0.8889 0.7778 1
0.5556 0.8889 0.8889 1
0.6667 0.0000 0.0000 1
0.6667 0.0000 0.1111 1
0.6667 0.0000 0.2222 1
0.6667 0.0000 0.3333 1
0.6667 0.0000 0.4444 1
0.6667 0.0000 0.5556 1
0.6667 0.0000 0.6667 1
0.6667 0.0000 0.7778 1
0.6667 0.0000 0.8889 1
0.6667 0.1111 0.0000 1
0.6667 0.1111 0.1111 1
0.6667 0.1111 0.2222 1
0.6667 0.1111 0.3333 1
0.6667 0.1111 0.4444 1
0.6667 0.1111 0.5556 1
0.6667 0.1111 0.6667 1
0.6667 0.1111 0.7778 1
0.6667 0.1111 0.8889 1
0.6667 0.2222 0.0000 1
0.6667 0.2222 0.1111 1
0.6667 0.2222 0.2222 1
0.6667 0.2222 0.3333 1
0.6667 0.2222 0.4444 1
0.6667 0.2222 0.5556 1
0.6667 0.2222 0.6667 1
0.6667 0.2222 0.7778 1
0.6667 0.2222 0.8889 1
0.6667 0.3333 0.0000 1
0.6667 0.3333 0.1111 1
0.6667 0.3333 0.2222 1
0.6667 0.3333 0.3333 1
0.6667 0.3333 0.4444 1
0.6667 0.3333 0.5556 1
0.6667 0.3333 0.6667 1
0.6667 0.3333 0.7778 1
0.6667 0.3333 0.8889 1
0.6667 0.4444 0.0000 1
0.6667 0.4444 0.1111 1
0.6667 0.4444 0.2222 1
0.6667 0.4444 0.3333 1
0.6667 0.4444 0.4444 1
0.6667 0.4444 0.5556 1
0.6667 0.4444 0.6667 1
0.6667 0.4444 0.7778 1
0.6667 0.4444 0.8889 1
0.6667 0.5556 0.0000 1
0.6667 0.5556 0.1111 1
0.6667 0.5556 0.2222 1
0.6667 0.5556 0.3333 1
0.6667 0.5556 0.4444 1
0.6667 0.5556 0.5556 1
0.6667 0.5556 0.6667 1
0.6667 0.5556 0.7778 1
0.6667 0.5556 0.8889 1
0.6667 0.6667 0.0000 1
0.6667 0.6667 0.1111 1
0.6667 0.6667 0.2222 1
0.6667 0.6667 0.3333 1
0.6667 0.6667 0.4444 1
0.6667 0.6667 0.5556 1
0.6667 0.6667 0.6667 1
0.6667 0.6667 0.7778 1
0.6667 0.6667 0.8889 1
0.6667 0.7778 0.0000 1
0.6667 0.7778 0.1111 1
0.6667 0.7778 0.2222 1
0.6667 0.7778 0.3333 1
0.6667 0.7778 0.4444 1
0.6667 0.7778 0.5556 1
0.6667 0.7778 0.6667 1
0.6667 0.7778 0.7778 1
0.6667 0.7778 0.8889 1
0.6667 0.8889 0.0000 1
0.6667 0.8889 0.1111 1
0.6667 0.8889 0.2222 1
0.6667 0.8889 0.3333 1
0.6667 0.8889 0.4444 1
0.6667 0.8889 0.5556 1
0.6667 0.8889 0.6667 1
0.6667 0.8889 0.7778 1
0.6667 0.8889 0.8889 1
0.7778 0.0000 0.0000 1
0.7778 0.0000 0.1111 1
0.7778 0.0000 0.2222 1
0.7778 0.0000 0.3333 1
0.7778 0.0000 0.4444 1
0.7778 0.0000 0.5556 1
0.7778 0.0000 0.6667 1
0.7778 0.0000 0.7778 1
0.7778 0.0000 0.8889 1
0.7778 0.1111 0.0000 1
0.7778 0.1111 0.1111 1
0.7778 0.1111 0.2222 1
0.7778 0.1111 0.3333 1
0.7778 0.1111 0.4444 1
0.7778 0.1111 0.5556 1
0.7778 0.1111 0.6667 1
0.7778 0.1111 0.7778 1
0.7778 0.1111 0.8889 1
0.7778 0.2222 0.0000 1
0.7778 0.2222 0.1111 1
0.7778 0.2222 0.2222 1
0.7778 0.2222 0.3333 1
0.7778 0.2222 0.4444 1
0.7778 0.2222 0.5556 1
0.7778 0.2222 0.6667 1
0.7778 0.2222 0.7778 1
0.7778 0.2222 0.8889 1
0.7778 0.3333 0.0000 1
0.7778 0.3333 0.1111 1
0.7778 0.3333 0.2222 1
0.7778 0.3333 0.3333 1
0.7778 0.3333 0.4444 1
0.7778 0.3333 0.5556 1
0.7778 0.3333 0.6667 1
0.7778 0.3333 0.7778 1
0.7778 0.3333 0.8889 1
0.7778 0.4444 0.0000 1
0.7778 0.4444 0.1111 1
0.7778 0.4444 0.2222 1
0.7778 0.4444 0.3333 1
0.7778 0.4444 0.4444 1
0.7778 0.4444 0.5556 1
0.7778 0.4444 0.6667 1
0.7778 0.4444 0.7778 1
0.7778 0.4444 0.8889 1
0.7778 0.5556 0.0000 1
0.7778 0.5556 0.1111 1
0.7778 0.5556 0.2222 1
0.7778 0.5556 0.3333 1
0.7778 0.5556 0.4444 1
0.7778 0.5556 0.5556 1
0.7778 0.5556 0.6667 1
0.7778 0.5556 0.7778 1
0.7778 0.5556 0.8889 1
0.7778 0.6667 0.0000 1
0.7778 0.6667 0.1111 1
0.7778 0.6667 0.2222 1
0.7778 0.6667 0.3333 1
0.7778 0.6667 0.4444 1
0.7778 0.6667 0.5556 1
0.7778 0.6667 0.6667 1
0.7778 0.6667 0.7778 1
0.7778 0.6667 0.8889 1
0.7778 0.7778 0.0000 1
0.7778 0.7778 0.1111 1
0.7778 0.7778 0.2222 1
0.7778 0.7778 0.3333 1
0.7778 0.7778 0.4444 1
0.7778 0.7778 0.5556 1
0.7778 0.7778 0.6667 1
0.7778 0.7778 0.7778 1
0.7778 0.7778 0.8889 1
0.7778 0.8889 0.0000 1
0.7778 0.8889 0.1111 1
0.7778 0.8889 0.2222 1
0.7778 0.8889 0.3333 1
0.7778 0.8889 0.4444 1
0.7778 0.8889 0.5556 1
0.7778 0.8889 0.6667 1
0.7778 0.8889 0.7778 1
0.7778 0.8889 0.8889 1
0.8889 0.0000 0.0000 1
0.8889 0.0000 0.1111 1
0.8889 0.0000 0.2222 1
0.8889 0.0000 0.3333 1
0.8889 0.0000 0.4444 1
0.8889 0.0000 0.5556 1
0.8889 0.0000 0.6667 1
0.8889 0.0000 0.7778 1
0.8889 0.0000 0.8889 1
0.8889 0.1111 0.0000 1
0.8889 0.1111 0.1111 1
0.8889 0.1111 0.2222 1
0.8889 0.1111 0.3333 1
0.8889 0.1111 0.4444 1
0.8889 0.1111 0.5556 1
0.8889 0.1111 0.6667 1
0.8889 0.1111 0.7778 1
0.8889 0.1111 0.8889 1
0.8889 0.2222 0.0000 1
0.8889 0.2222 0.1111 1
0.8889 0.2222 0.2222 1
0.8889 0.2222 0.3333 1
0.8889 0.2222 0.4444 1
0.8889 0.2222 0.5556 1
0.8889 0.2222 0.6667 1
0.8889 0.2222 0.7778 1
0.8889 0.2222 0.8889 1
0.8889 0.3333 0.0000 1
0.8889 0.3333 0.1111 1
0.8889 0.3333 0.2222 1
0.8889 0.3333 0.3333 1
0.8889 0.3333 0.4444 1
0.8889 0.3333 0.5556 1
0.8889 0.3333 0.6667 1
0.8889 0.3333 0.7778 1
0.8889 0.3333 0.8889 1
0.8889 0.4444 0.0000 1
0.8889 0.4444 0.1111 1
0.8889 0.4444 0.2222 1
0.8889 0.4444 0.3333 1
0.8889 0.4444 0.4444 1
0.8889 0.4444 0.5556 1
0.8889 0.4444 0.6667 1
0.8889 0.4444 0.7778 1
0.8889 0.4444 0.8889 1
0.8889 0.5556 0.0000 1
0.8889 0.5556 0.1111 1
0.8889 0.5556 0.2222 1
0.8889 0.5556 0.3333 1
0.8889 0.5556 0.4444 1
0.8889 0.5556 0.5556 1
0.8889 0.5556 0.6667 1
0.8889 0.5556 0.7778 1
0.8889 0.5556 0.8889 1
0.8889 0.6667 0.0000 1
0.8889 0.6667 0.1111 1
0.8889 0.6667 0.2222 1
0.8889 0.6667 0.3333 1
0.8889 0.6667 0.4444 1
0.8889 0.6667 0.5556 1
0.8889 0.6667 0.6667 1
0.8889 0.6667 0.7778 1
0.8889 0.6667 0.8889 1
0.8889 0.7778 0.0000 1
0.8889 0.7778 0.1111 1
0.8889 0.7778 0.2222 1
0.8889 0.7778 0.3333 1
0.8889 0.7778 0.4444 1
0.8889 0.7778 0.5556 1
0.8889 0.7778 0.6667 1
0.8889 0.7778 0.7778 1
0.8889 0.7778 0.8889 1
0.8889 0.8889 0.0000 1
0.8889 0.8889 0.1111 1
0.8889 0.8889 0.2222 1
0.8889 0.8889 0.3333 1
0.8889 0.8889 0.4444 1
0.8889 0.8889 0.5556 1
0.8889 0.8889 0.6667 1
0.8889 0.8889 0.7778 1
0.8889 0.8889 0.8889 1
